1 51 2
-956 -232 -906 -710 -33 -503 -142 -173 -323 -606 -983 -943 -450 -370 -503 -730 -44 -228 -333 -113 -759 -617 -323 -78 -170 -115 -404 -162 -163 -815 -536 -587 -473 -632 -555 -366 -269 -940 -976 -832 -795 -489 -185 -949 -129 -90 -356 -698 -866 -233 0 
-354 -160 -390 -934 -119 -530 -860 -316 -199 -432 -845 -745 -252 -375 -229 -833 -421 -669 -908 -799 -691 -630 -877 -779 -320 -678 -245 -251 -952 -840 -238 -238 -35 -260 -455 -56 -641 -765 -326 -407 -395 -73 -847 -760 -293 -186 -660 -56 -565 -754 0 
422 24 761 294 284 260 525 893 444 130 887 280 995 516 259 708 530 820 392 450 280 102 587 89 748 921 687 743 83 739 19 596 269 105 806 494 117 40 835 197 188 450 332 390 492 633 457 298 257 722 1 
11275 
